/*********************************************
    * Lab01 - simple
    * Author: Coso
    * Creation Date: Mar, 2019
    *********************************************/
instance_name = "medium_instance_14_simple";

d = 5;
r = 15;

SCj = [216 252 244 244 250];
Dk = [72 82 60 90 26 66 35 91 58 17 27 91 97 17 81];

Cjk = [[35 84 70 75 77 32 84 46 48 88 31 82 58 34 33]
 [45 47 80 86 61 56 88 63 31 44 82 85 62 58 74]
 [73 61 47 60 57 51 32 60 87 49 50 81 70 81 82]
 [38 36 69 75 36 65 87 81 40 76 63 86 86 60 60]
 [58 46 40 31 46 81 64 71 38 41 83 67 63 80 71]];
